(set-logic BV)
( synth-fun inv ((dataa (_ BitVec 8)) (datab (_ BitVec 8)) (add_sub Bool) (result (_ BitVec 9)) ) Bool
(
(Start  Bool)
(MixBv8  (_ BitVec 8))
(MixBv9  (_ BitVec 9))
)
(
(Start Bool 
	(
	(not Start) 
	(and Start Start) 
	(or Start Start)
	(= MixBv8 ((_ extract 7 0) result))
	)
)
(MixBv8 (_ BitVec 8) 
    ( 
	dataa
	datab
	(bvneg MixBv8)
	(bvnot MixBv8)
	(bvand MixBv8 MixBv8)
	(bvor MixBv8 MixBv8)
	(bvadd MixBv8 MixBv8)
	(bvsub MixBv8 MixBv8)
	(bvmul MixBv8 MixBv8)
	)
)
(MixBv9 (_ BitVec 9) 
    ( 
	result
	(bvneg MixBv9)
	(bvnot MixBv9)
	(bvand MixBv9 MixBv9)
	(bvor MixBv9 MixBv9)
	(bvadd MixBv9 MixBv9)
	(bvsub MixBv9 MixBv9)
	(bvmul MixBv9 MixBv9)
	)
)
)
)
; (constraint (=(inv #b00000000 #b00000000 false #b000000000 ) true))
; (constraint (=(inv #b00011110 #b00110110 true #b000000000 ) true))
(constraint (=(inv #b00011110 #b00110110 true #b001010100 ) true))
; (constraint (=(inv #b01000001 #b00101010 true #b001010100 ) true))
; (constraint (=(inv #b01000001 #b00101010 true #b001101011 ) true))
; (constraint (=(inv #b00011001 #b00001011 true #b001101011 ) true))
; (constraint (=(inv #b00011001 #b00001011 true #b000100100 ) true))
; (constraint (=(inv #b00101100 #b01010001 true #b000100100 ) true))
; (constraint (=(inv #b00101100 #b01010001 true #b001111101 ) true))
; (constraint (=(inv #b00011101 #b01000001 true #b001111101 ) true))
; (constraint (=(inv #b00011101 #b01000001 true #b001011110 ) true))
; (constraint (=(inv #b00000011 #b00100010 true #b001011110 ) true))
; (constraint (=(inv #b00000011 #b00100010 true #b000100101 ) true))
; (constraint (=(inv #b00010110 #b01011001 true #b000100101 ) true))
; (constraint (=(inv #b00010110 #b01011001 true #b001101111 ) true))
; (constraint (=(inv #b01011100 #b00011111 true #b001101111 ) true))
; (constraint (=(inv #b01011100 #b00011111 true #b001111011 ) true))
; (constraint (=(inv #b00000100 #b01011110 true #b001111011 ) true))
; (constraint (=(inv #b00000100 #b01011110 true #b001100010 ) true))
; (constraint (=(inv #b00001101 #b01011011 true #b001100010 ) true))
; (constraint (=(inv #b00001101 #b01011011 true #b001100010 ) true))
; (constraint (=(inv #b00001101 #b01011011 true #b001100010 ) true))
(check-synth)
